50
102
8
50
0 1
0 29
0 40
1 16
1 24
1 46
2 3
2 28
2 31
2 38
2 40
3 6
3 7
3 9
3 12
3 33
3 36
3 48
4 17
4 41
5 6
5 38
6 9
6 13
6 38
6 39
6 45
7 22
7 47
8 17
9 35
11 36
11 39
11 41
12 35
12 41
12 46
13 16
13 17
13 22
13 49
14 17
14 20
14 33
14 34
14 35
15 43
15 45
16 20
16 33
16 44
17 18
17 41
18 19
18 23
18 34
18 43
18 44
19 23
19 27
19 32
19 40
20 27
20 42
20 48
21 22
21 24
21 30
23 29
23 34
23 46
24 38
25 30
25 37
25 39
25 43
27 42
27 46
27 47
28 36
28 40
29 38
29 40
29 41
30 31
31 45
31 49
32 33
32 37
32 39
32 42
32 46
33 47
33 48
37 47
38 48
39 40
43 49
45 49
48 49
0
1
2
3
4
5
6
7
8
9
10
11
12
13
14
15
16
17
18
19
20
21
22
23
24
25
26
27
28
29
30
31
32
33
34
35
36
37
38
39
40
41
42
43
44
45
46
47
48
49
